
******************************************************************************
This program contains Ipopt, a library for large-scale nonlinear optimization.
 Ipopt is released as open source code under the Eclipse Public License (EPL).
         For more information visit https://github.com/coin-or/Ipopt
******************************************************************************

This is Ipopt version 3.14.19, running with linear solver MUMPS 5.8.1.

Number of nonzeros in equality constraint Jacobian...:     4389
Number of nonzeros in inequality constraint Jacobian.:        0
Number of nonzeros in Lagrangian Hessian.............:     1050

Total number of variables............................:     1287
                     variables with only lower bounds:        0
                variables with lower and upper bounds:      457
                     variables with only upper bounds:        0
Total number of equality constraints.................:     1274
Total number of inequality constraints...............:        0
        inequality constraints with only lower bounds:        0
   inequality constraints with lower and upper bounds:        0
        inequality constraints with only upper bounds:        0

iter    objective    inf_pr   inf_du lg(mu)  ||d||  lg(rg) alpha_du alpha_pr  ls
   0  9.8514950e+00 9.84e+01 1.97e-04  -1.0 0.00e+00    -  0.00e+00 0.00e+00   0
   1  9.8800267e+00 9.24e+00 2.10e+01  -1.0 9.78e+01    -  4.39e-02 1.00e+00h  1
   2  9.8701233e+00 3.83e+00 5.34e-02  -1.0 1.95e+01    -  9.53e-01 1.00e+00h  1
   3  9.8686337e+00 1.40e+01 1.90e-01  -1.0 4.03e+01    -  6.66e-01 1.00e+00h  1
   4  9.8773217e+00 4.73e+00 3.78e-01  -1.0 1.95e+00  -4.0 9.96e-01 6.62e-01h  1
   5  9.8785803e+00 3.86e-02 3.37e-04  -1.0 6.86e-01  -4.5 1.00e+00 1.00e+00h  1
   6  9.8775145e+00 4.94e-01 1.56e-03  -2.5 1.54e+01    -  1.00e+00 1.00e+00h  1
   7  9.8758621e+00 2.16e+00 8.25e-04  -2.5 4.90e+01    -  1.00e+00 1.00e+00h  1
   8  9.8757387e+00 4.83e-01 3.10e-03  -2.5 1.16e+02    -  1.00e+00 1.00e+00h  1
   9  9.8749045e+00 1.05e+01 1.18e-03  -2.5 3.73e+02    -  1.00e+00 1.00e+00h  1
iter    objective    inf_pr   inf_du lg(mu)  ||d||  lg(rg) alpha_du alpha_pr  ls
  10  9.8754197e+00 1.34e-04 1.71e-06  -2.5 1.75e-02  -5.0 1.00e+00 1.00e+00h  1
  11  9.8745324e+00 1.12e+00 1.04e-02  -3.8 2.95e+02    -  8.06e-01 1.00e+00h  1
  12  9.8648718e+00 1.32e+00 5.58e-03  -3.8 7.31e+02    -  4.00e-01 1.00e+00h  1
  13  9.8633137e+00 1.95e+00 1.13e-03  -3.8 1.55e+03    -  1.00e+00 1.00e+00h  1
  14  9.8631354e+00 1.06e+00 2.04e-03  -3.8 3.21e+03    -  1.00e+00 1.00e+00h  1
  15  9.8631224e+00 3.50e+00 4.26e-04  -3.8 7.01e+03    -  1.00e+00 1.00e+00h  1
  16  9.8631242e+00 1.70e+00 1.13e-02  -3.8 2.39e+04    -  1.00e+00 1.00e+00h  1
  17  9.8631230e+00 5.22e-10 2.40e-10  -3.8 6.47e-05  -5.4 1.00e+00 1.00e+00h  1
  18  9.8601588e+00 1.11e+00 2.06e-03  -5.7 1.85e+04    -  7.97e-01 9.70e-01f  1
  19  9.8599042e+00 1.62e+00 2.44e-03  -5.7 4.45e+04    -  6.15e-01 1.00e+00h  1
iter    objective    inf_pr   inf_du lg(mu)  ||d||  lg(rg) alpha_du alpha_pr  ls
  20  9.8598593e+00 1.49e+00 2.97e-03  -5.7 9.44e+04    -  1.00e+00 1.00e+00h  1
  21  9.8598657e+00 1.96e+00 2.30e-03  -5.7 1.92e+05    -  1.00e+00 1.00e+00h  1
  22  9.8598640e+00 1.13e+00 3.86e-03  -5.7 3.92e+05    -  1.00e+00 1.00e+00h  1
  23  9.8598638e+00 5.83e-01 2.93e-03  -5.7 8.41e+05    -  1.00e+00 1.00e+00H  1
  24  9.8598638e+00 5.58e-01 3.60e-03  -5.7 1.53e+06    -  1.00e+00 1.00e+00H  1
  25  9.8598638e+00 1.92e-01 2.19e-03  -5.7 3.25e+06    -  1.00e+00 1.00e+00H  1
  26  9.8598638e+00 7.03e-02 2.97e-03  -5.7 5.91e+06    -  1.00e+00 1.00e+00H  1
  27  9.8598638e+00 3.62e-02 2.80e-03  -5.7 1.26e+07    -  1.00e+00 1.00e+00H  1
  28  9.8598638e+00 2.55e-02 2.76e-03  -5.7 2.47e+07    -  1.00e+00 1.00e+00H  1
  29  9.8598638e+00 2.43e-02 2.77e-03  -5.7 4.93e+07    -  1.00e+00 1.00e+00H  1
iter    objective    inf_pr   inf_du lg(mu)  ||d||  lg(rg) alpha_du alpha_pr  ls
  30  9.8598638e+00 6.19e-03 2.75e-03  -5.7 9.87e+07    -  1.00e+00 1.00e+00H  1
  31  9.8598638e+00 6.19e-03 2.75e-03  -5.7 1.97e+08    -  1.00e+00 1.95e-03h 10
  32  9.8598638e+00 6.18e-03 2.78e-03  -5.7 1.97e+08    -  1.00e+00 1.00e+00H  1
  33  9.8598638e+00 6.18e-03 2.77e-03  -5.7 3.96e+08    -  1.00e+00 1.95e-03h 10
  34  9.8598638e+00 6.18e-03 2.77e-03  -5.7 3.96e+08    -  1.00e+00 1.95e-03h 10
  35  9.8598638e+00 6.18e-03 2.76e-03  -5.7 3.96e+08    -  1.00e+00 1.95e-03h 10
  36  9.8598638e+00 6.18e-03 2.76e-03  -5.7 3.96e+08    -  1.00e+00 1.95e-03h 10
  37  9.8598638e+00 6.17e-03 2.75e-03  -5.7 3.96e+08    -  1.00e+00 1.95e-03h 10
  38  9.8598638e+00 6.17e-03 2.75e-03  -5.7 3.97e+08    -  1.00e+00 1.95e-03h 10
  39  9.8598638e+00 6.17e-03 2.78e-03  -5.7 3.97e+08    -  1.00e+00 1.00e+00H  1
iter    objective    inf_pr   inf_du lg(mu)  ||d||  lg(rg) alpha_du alpha_pr  ls
  40  9.8598638e+00 6.17e-03 2.77e-03  -5.7 7.96e+08    -  1.00e+00 1.95e-03h 10
  41  9.8598638e+00 6.17e-03 2.77e-03  -5.7 7.96e+08    -  1.00e+00 1.95e-03h 10
  42  9.8598638e+00 6.16e-03 2.76e-03  -5.7 7.97e+08    -  1.00e+00 1.95e-03h 10
  43  9.8598638e+00 6.16e-03 2.76e-03  -5.7 7.97e+08    -  1.00e+00 1.95e-03h 10
  44  9.8598638e+00 6.16e-03 2.75e-03  -5.7 7.97e+08    -  1.00e+00 1.95e-03h 10
  45  9.8598638e+00 6.16e-03 2.75e-03  -5.7 7.98e+08    -  1.00e+00 1.95e-03h 10
  46  9.8598638e+00 6.16e-03 2.74e-03  -5.7 7.98e+08    -  1.00e+00 1.95e-03h 10
  47  9.8598638e+00 6.12e-03 2.78e-03  -5.7 7.99e+08    -  1.00e+00 1.00e+00H  1
  48  9.8598638e+00 6.11e-03 2.77e-03  -5.7 1.60e+09    -  1.00e+00 1.95e-03h 10
  49  9.8598638e+00 6.11e-03 2.77e-03  -5.7 1.60e+09    -  1.00e+00 1.95e-03h 10
iter    objective    inf_pr   inf_du lg(mu)  ||d||  lg(rg) alpha_du alpha_pr  ls
  50  9.8598638e+00 6.11e-03 2.76e-03  -5.7 1.60e+09    -  1.00e+00 1.95e-03h 10
  51  9.8598638e+00 6.11e-03 2.76e-03  -5.7 1.61e+09    -  1.00e+00 1.95e-03h 10
  52  9.8598638e+00 6.11e-03 2.75e-03  -5.7 1.61e+09    -  1.00e+00 1.95e-03h 10
  53  9.8598638e+00 6.11e-03 2.75e-03  -5.7 1.61e+09    -  1.00e+00 1.95e-03h 10
  54  9.8598638e+00 6.11e-03 2.74e-03  -5.7 1.61e+09    -  1.00e+00 1.95e-03h 10
  55  9.8598638e+00 6.11e-03 2.74e-03  -5.7 1.61e+09    -  1.00e+00 1.95e-03h 10
  56  9.8598638e+00 6.07e-03 2.78e-03  -5.7 1.61e+09    -  1.00e+00 1.00e+00H  1
  57  9.8598638e+00 6.07e-03 2.77e-03  -5.7 3.23e+09    -  1.00e+00 1.95e-03h 10
  58  9.8598638e+00 6.07e-03 2.77e-03  -5.7 3.23e+09    -  1.00e+00 1.95e-03h 10
  59  9.8598638e+00 6.07e-03 2.76e-03  -5.7 3.23e+09    -  1.00e+00 1.95e-03h 10
iter    objective    inf_pr   inf_du lg(mu)  ||d||  lg(rg) alpha_du alpha_pr  ls
  60  9.8598638e+00 6.07e-03 2.76e-03  -5.7 3.24e+09    -  1.00e+00 1.95e-03h 10
  61  9.8598638e+00 6.06e-03 2.75e-03  -5.7 3.24e+09    -  1.00e+00 1.95e-03h 10
  62  9.8598638e+00 6.06e-03 2.75e-03  -5.7 3.24e+09    -  1.00e+00 1.95e-03h 10
  63  9.8598638e+00 6.06e-03 2.74e-03  -5.7 3.24e+09    -  1.00e+00 1.95e-03h 10
  64  9.8598638e+00 6.06e-03 2.74e-03  -5.7 3.24e+09    -  1.00e+00 1.95e-03h 10
  65  9.8598638e+00 6.06e-03 2.73e-03  -5.7 3.24e+09    -  1.00e+00 1.95e-03h 10
  66  9.8598638e+00 6.02e-03 2.78e-03  -5.7 3.25e+09    -  1.00e+00 1.00e+00H  1
  67  9.8598638e+00 6.02e-03 2.78e-03  -5.7 6.52e+09    -  1.00e+00 1.95e-03h 10
  68  9.8598638e+00 6.02e-03 2.77e-03  -5.7 6.52e+09    -  1.00e+00 1.95e-03h 10
  69  9.8598638e+00 6.02e-03 2.76e-03  -5.7 6.53e+09    -  1.00e+00 1.95e-03h 10
iter    objective    inf_pr   inf_du lg(mu)  ||d||  lg(rg) alpha_du alpha_pr  ls
  70  9.8598638e+00 6.02e-03 2.76e-03  -5.7 6.53e+09    -  1.00e+00 1.95e-03h 10
  71  9.8598638e+00 6.02e-03 2.75e-03  -5.7 6.53e+09    -  1.00e+00 1.95e-03h 10
  72  9.8598638e+00 6.02e-03 2.75e-03  -5.7 6.54e+09    -  1.00e+00 1.95e-03h 10
  73  9.8598638e+00 6.02e-03 2.74e-03  -5.7 6.54e+09    -  1.00e+00 1.95e-03h 10
  74  9.8598638e+00 6.02e-03 2.74e-03  -5.7 6.54e+09    -  1.00e+00 1.95e-03h 10
  75  9.8598638e+00 6.01e-03 2.73e-03  -5.7 6.54e+09    -  1.00e+00 1.95e-03h 10
  76  9.8598638e+00 6.01e-03 2.73e-03  -5.7 6.55e+09    -  1.00e+00 1.95e-03h 10
  77  9.8598638e+00 2.76e+00 1.07e-03  -5.7 6.55e+09    -  1.00e+00 1.00e+00w  1
  78  9.8598638e+00 1.18e-01 9.02e-03  -5.7 1.83e+10    -  1.00e+00 1.00e+00w  1
  79  9.8598638e+00 1.12e-15 4.44e-16  -5.7 1.24e-11  -5.9 1.00e+00 1.00e+00h  1
iter    objective    inf_pr   inf_du lg(mu)  ||d||  lg(rg) alpha_du alpha_pr  ls
  80  9.8598495e+00 2.39e-01 2.78e-03  -8.6 1.68e+10    -  9.78e-01 4.37e-01f  1
  81  9.8598491e+00 5.18e-01 4.53e-03  -8.6 2.26e+10    -  1.00e+00 5.62e-01h  1
  82  9.8598491e+00 1.86e-01 1.46e-03  -8.6 3.30e+10    -  1.00e+00 1.00e+00H  1
  83  9.8598491e+00 9.66e-02 9.75e-04  -8.6 8.48e+10    -  1.00e+00 1.00e+00H  1
  84  9.8598491e+00 7.10e-02 1.06e-03  -8.6 1.51e+11    -  1.00e+00 1.00e+00H  1
  85  9.8598491e+00 2.56e-02 1.11e-03  -8.6 3.10e+11    -  1.00e+00 1.00e+00H  1
  86  9.8598491e+00 7.03e-03 1.07e-03  -8.6 6.26e+11    -  1.00e+00 1.00e+00H  1
  87  9.8598491e+00 6.09e-03 1.09e-03  -8.6 1.24e+12    -  1.00e+00 1.00e+00H  1
  88  9.8598491e+00 6.09e-03 1.08e-03  -8.6 2.49e+12    -  1.00e+00 1.95e-03h 10
  89  9.8598491e+00 6.09e-03 1.08e-03  -8.6 2.49e+12    -  1.00e+00 1.95e-03h 10
iter    objective    inf_pr   inf_du lg(mu)  ||d||  lg(rg) alpha_du alpha_pr  ls
  90  9.8598491e+00 6.09e-03 1.08e-03  -8.6 2.49e+12    -  1.00e+00 1.95e-03h 10
  91  9.8598491e+00 6.09e-03 1.08e-03  -8.6 2.49e+12    -  1.00e+00 1.95e-03h 10
  92  9.8598491e+00 6.09e-03 1.07e-03  -8.6 2.49e+12    -  1.00e+00 1.95e-03h 10
  93  9.8598491e+00 6.09e-03 1.07e-03  -8.6 2.50e+12    -  1.00e+00 1.95e-03h 10
  94  9.8598491e+00 6.08e-03 1.07e-03  -8.6 2.50e+12    -  1.00e+00 1.95e-03h 10
  95  9.8598491e+00 6.08e-03 1.07e-03  -8.6 2.50e+12    -  1.00e+00 1.95e-03h 10
  96  9.8598491e+00 6.08e-03 1.07e-03  -8.6 2.50e+12    -  1.00e+00 1.95e-03h 10
  97  9.8598491e+00 6.01e-03 1.09e-03  -8.6 2.50e+12    -  1.00e+00 1.00e+00H  1
  98  9.8598491e+00 6.01e-03 1.08e-03  -8.6 5.03e+12    -  1.00e+00 1.95e-03h 10
  99  9.8598491e+00 6.01e-03 1.08e-03  -8.6 5.03e+12    -  1.00e+00 1.95e-03h 10
iter    objective    inf_pr   inf_du lg(mu)  ||d||  lg(rg) alpha_du alpha_pr  ls
 100  9.8598491e+00 6.01e-03 1.08e-03  -8.6 5.03e+12    -  1.00e+00 1.95e-03h 10
 101  9.8598491e+00 6.01e-03 1.08e-03  -8.6 5.03e+12    -  1.00e+00 1.95e-03h 10
 102  9.8598491e+00 6.01e-03 1.07e-03  -8.6 5.04e+12    -  1.00e+00 1.95e-03h 10
 103  9.8598491e+00 6.01e-03 1.07e-03  -8.6 5.04e+12    -  1.00e+00 1.95e-03h 10
 104  9.8598491e+00 6.01e-03 1.07e-03  -8.6 5.04e+12    -  1.00e+00 1.95e-03h 10
 105  9.8598491e+00 6.01e-03 1.07e-03  -8.6 5.04e+12    -  1.00e+00 1.95e-03h 10
 106  9.8598491e+00 6.01e-03 1.07e-03  -8.6 5.05e+12    -  1.00e+00 1.95e-03h 10
 107  9.8598491e+00 6.00e-03 1.06e-03  -8.6 5.05e+12    -  1.00e+00 1.95e-03h 10
 108  9.8598491e+00 2.76e+00 4.17e-04  -8.6 5.05e+12    -  1.00e+00 1.00e+00w  1
 109  9.8598491e+00 1.19e-01 3.53e-03  -8.6 1.41e+13    -  1.00e+00 1.00e+00w  1
iter    objective    inf_pr   inf_du lg(mu)  ||d||  lg(rg) alpha_du alpha_pr  ls
 110  9.8598491e+00 1.55e-15 4.44e-16  -8.6 1.56e-14  -6.4 1.00e+00 1.00e+00h  1

Number of Iterations....: 110

                                   (scaled)                 (unscaled)
Objective...............:   9.8598490755707857e+00    9.8598490755707857e+00
Dual infeasibility......:   4.4408920985006262e-16    4.4408920985006262e-16
Constraint violation....:   1.5542181365192725e-15    1.5542181365192725e-15
Variable bound violation:   0.0000000000000000e+00    0.0000000000000000e+00
Complementarity.........:   2.5059035596800626e-09    2.5059035596800626e-09
Overall NLP error.......:   2.5059035596800626e-09    2.5059035596800626e-09


Number of objective function evaluations             = 952
Number of objective gradient evaluations             = 111
Number of equality constraint evaluations            = 952
Number of inequality constraint evaluations          = 0
Number of equality constraint Jacobian evaluations   = 111
Number of inequality constraint Jacobian evaluations = 0
Number of Lagrangian Hessian evaluations             = 110
Total seconds in IPOPT                               = 0.684

EXIT: Optimal Solution Found.
